benchmark/results/graph__10-1000-0.10-03_11/graph__10-1000-0.10-03_11_Quinton_Benders_aux.lp
\ This file has been generated by DOcplex
\ ENCODING=ISO-8859-1
\Problem name: Quinton Benders_auxiliary_sub

Minimize
 obj: 0.001110768020 pi_nr_a0 + 0.001908355678 pi_nr_a1
      + 0.000920810313 pi_nr_a2 + 0.002232142857 pi_nr_a3
      + 0.000960614793 pi_nr_a4 + 0.001217902143 pi_nr_a5
      + 0.001271015019 pi_nr_a6 + 0.001419748180 pi_nr_a7
      + 0.001361720932 pi_nr_a8 + 0.001982809019 pi_nr_a9 + pi_p_a2_a4
      + 2 pi_p_a5_a0 + pi_p_a6_a7 + pi_p_a8_a6 + pi_p_a6_a9 + pi_p_a7_a3
      + 2466.406927636119 pi_d_a0_a1_proc_2
      + 2240.871307604648 pi_d_a0_a1_proc_1
      + 2206.423770409113 pi_d_a0_a1_proc_0
      + 1212.938923869533 pi_d_a1_a0_proc_2 + 987.403303838061 pi_d_a1_a0_proc_1
      + 952.955766642526 pi_d_a1_a0_proc_0 + 1589.636520979251 pi_d_a0_a2_proc_2
      + 2300.603995315020 pi_d_a0_a2_proc_1
      + 3202.659556000678 pi_d_a0_a2_proc_0 + 216.703139449285 pi_d_a2_a0_proc_2
      + 927.670613785054 pi_d_a2_a0_proc_1 + 1829.726174470712 pi_d_a2_a0_proc_0
      + 1309.370101992251 pi_d_a0_a3_proc_2
      + 2020.337578670692 pi_d_a0_a3_proc_1 + 496.969556093577 pi_d_a3_a0_proc_2
      + 1207.937032772018 pi_d_a3_a0_proc_1
      + 2514.417282974582 pi_d_a0_a4_proc_2 + 709.384760635592 pi_d_a0_a4_proc_1
      + 2869.440319658308 pi_d_a0_a4_proc_0
      + 1807.922374128927 pi_d_a4_a0_proc_2 + 2.889851789937 pi_d_a4_a0_proc_1
      + 2162.945410812653 pi_d_a4_a0_proc_0
      + 3084.728811282634 pi_d_a0_a5_proc_2
      + 2474.088511796602 pi_d_a0_a5_proc_1
      + 3034.076102703708 pi_d_a0_a5_proc_0 + 711.799860760672 pi_d_a5_a0_proc_2
      + 101.159561274640 pi_d_a5_a0_proc_1 + 661.147152181745 pi_d_a5_a0_proc_0
      + 2219.239374116391 pi_d_a0_a6_proc_2 + 954.617407015248 pi_d_a0_a6_proc_1
      + 2358.231717112547 pi_d_a0_a6_proc_0
      + 1886.847041953600 pi_d_a6_a0_proc_2 + 622.225074852458 pi_d_a6_a0_proc_1
      + 2025.839384949756 pi_d_a6_a0_proc_0
      + 3336.121004796208 pi_d_a0_a7_proc_2
      + 2870.829852682013 pi_d_a0_a7_proc_1
      + 2596.628611105680 pi_d_a0_a7_proc_0 + 822.734692406941 pi_d_a7_a0_proc_2
      + 357.443540292746 pi_d_a7_a0_proc_1 + 83.242298716413 pi_d_a7_a0_proc_0
      + 386.489235507623 pi_d_a0_a8_proc_1 + 48.477172968203 pi_d_a0_a8_proc_0
      + 2823.852997988882 pi_d_a8_a0_proc_1
      + 2485.840935449462 pi_d_a8_a0_proc_0
      + 1799.684806518888 pi_d_a0_a9_proc_2 + 321.164011724066 pi_d_a0_a9_proc_1
      + 1831.420985274648 pi_d_a0_a9_proc_0
      + 2520.504937507153 pi_d_a9_a0_proc_2
      + 1041.984142712332 pi_d_a9_a0_proc_1
      + 2552.241116262913 pi_d_a9_a0_proc_0 + 619.506178029372 pi_d_a1_a2_proc_2
      + 2199.003078976789 pi_d_a1_a2_proc_1
      + 1262.499983438159 pi_d_a1_a2_proc_0
      + 1254.500017733158 pi_d_a2_a1_proc_2
      + 2833.996918680576 pi_d_a2_a1_proc_1
      + 1897.493823141946 pi_d_a2_a1_proc_0
      + 1874.006193319138 pi_d_a1_a3_proc_2
      + 3453.503096609227 pi_d_a1_a3_proc_1 + 0.000000100685 pi_d_a3_a1_proc_2
      + 1579.496903390773 pi_d_a3_a1_proc_1
      + 3159.547925961631 pi_d_a1_a4_proc_2
      + 2223.044830234290 pi_d_a1_a4_proc_1
      + 2544.541733032718 pi_d_a1_a4_proc_0
      + 1230.458266475872 pi_d_a4_a1_proc_2 + 293.955170748530 pi_d_a4_a1_proc_1
      + 615.452073546958 pi_d_a4_a1_proc_0 + 2515.418361482863 pi_d_a1_a5_proc_2
      + 2773.307488608480 pi_d_a1_a5_proc_1
      + 1494.736423291298 pi_d_a1_a5_proc_0
      + 1348.776845894436 pi_d_a5_a1_proc_2
      + 1606.665973020053 pi_d_a5_a1_proc_1 + 328.094907702871 pi_d_a5_a1_proc_0
      + 2070.323795216092 pi_d_a1_a6_proc_2
      + 1674.231254726598 pi_d_a1_a6_proc_1
      + 1239.286908599609 pi_d_a1_a6_proc_0
      + 2103.429156187893 pi_d_a6_a1_proc_2
      + 1707.336615698399 pi_d_a6_a1_proc_1
      + 1272.392269571410 pi_d_a6_a1_proc_0
      + 1710.752307377126 pi_d_a1_a7_proc_2
      + 2113.990581874580 pi_d_a1_a7_proc_1 + 1.230684073959 pi_d_a1_a7_proc_0
      + 2515.769925160016 pi_d_a7_a1_proc_2
      + 2919.008199657470 pi_d_a7_a1_proc_1 + 806.248301856849 pi_d_a7_a1_proc_0
      + 2811.541960376591 pi_d_a1_a8_proc_1 + 634.971241612884 pi_d_a1_a8_proc_0
      + 2203.525661677205 pi_d_a8_a1_proc_1 + 26.954942913497 pi_d_a8_a1_proc_0
      + 3160.020195194314 pi_d_a1_a9_proc_2
      + 2550.028827011140 pi_d_a1_a9_proc_1
      + 2221.727144337435 pi_d_a1_a9_proc_0
      + 1227.836084165721 pi_d_a9_a1_proc_2 + 617.844715982548 pi_d_a9_a1_proc_1
      + 289.543033308842 pi_d_a9_a1_proc_0 + 1.000000907059 pi_d_a2_a3_proc_2
      + 2516.999998564388 pi_d_a2_a3_proc_1 + 0.000001435648 pi_d_a3_a2_proc_2
      + 2515.999999092977 pi_d_a3_a2_proc_1
      + 2516.980954408646 pi_d_a2_a4_proc_2
      + 2516.980953048544 pi_d_a2_a4_proc_1
      + 3774.980953728166 pi_d_a2_a4_proc_0 + 0.019046951742 pi_d_a4_a2_proc_2
      + 0.019045591640 pi_d_a4_a2_proc_1 + 1258.019046271262 pi_d_a4_a2_proc_0
      + 22.684313178008 pi_d_a2_a5_proc_2 + 1217.076534670864 pi_d_a2_a5_proc_1
      + 875.008567234876 pi_d_a2_a5_proc_0 + 1968.504703122176 pi_d_a5_a2_proc_2
      + 3162.896924615032 pi_d_a5_a2_proc_1
      + 2820.828957179044 pi_d_a5_a2_proc_0
      + 1976.387209073753 pi_d_a2_a6_proc_2
      + 2516.797762951499 pi_d_a2_a6_proc_1
      + 3018.356514705703 pi_d_a2_a6_proc_0 + 324.359551253116 pi_d_a6_a2_proc_2
      + 864.770105130863 pi_d_a6_a2_proc_1 + 1366.328856885066 pi_d_a6_a2_proc_0
      + 115.745884199896 pi_d_a2_a7_proc_2 + 1455.487253064589 pi_d_a2_a7_proc_1
      + 279.230453145163 pi_d_a2_a7_proc_0 + 2237.770157260131 pi_d_a7_a2_proc_2
      + 3577.511526124824 pi_d_a7_a2_proc_1
      + 2401.254726205398 pi_d_a7_a2_proc_0
      + 2282.228189073926 pi_d_a2_a8_proc_1
      + 1042.160568191412 pi_d_a2_a8_proc_0
      + 2732.839430637235 pi_d_a8_a2_proc_1
      + 1492.771809754720 pi_d_a8_a2_proc_0
      + 1489.005597749980 pi_d_a2_a9_proc_2
      + 1815.517323934047 pi_d_a2_a9_proc_1
      + 2423.718739141534 pi_d_a2_a9_proc_0
      + 1025.844490532939 pi_d_a9_a2_proc_2
      + 1352.356216717007 pi_d_a9_a2_proc_1
      + 1960.557631924494 pi_d_a9_a2_proc_0
      + 1553.700135821310 pi_d_a3_a4_proc_2
      + 1553.700136803880 pi_d_a3_a4_proc_1 + 963.299863196371 pi_d_a4_a3_proc_2
      + 963.299864178940 pi_d_a4_a3_proc_1 - 0.112514844835 pi_d_a3_a5_proc_2
      + 1194.279708990693 pi_d_a3_a5_proc_1
      + 1991.301528802311 pi_d_a5_a3_proc_2
      + 3185.693752637839 pi_d_a5_a3_proc_1
      + 1873.117475384503 pi_d_a3_a6_proc_2
      + 2413.528031604922 pi_d_a3_a6_proc_1 + 427.629282599658 pi_d_a6_a3_proc_2
      + 968.039838820076 pi_d_a6_a3_proc_1 + 2312.953531386921 pi_d_a3_a7_proc_2
      + 3652.694902594286 pi_d_a3_a7_proc_1 + 40.562507730398 pi_d_a7_a3_proc_2
      + 1380.303878937763 pi_d_a7_a3_proc_1
      + 1220.310019215405 pi_d_a3_a8_proc_1
      + 3794.757602838391 pi_d_a8_a3_proc_1
      + 1550.198676510240 pi_d_a3_a9_proc_2
      + 1876.710405036978 pi_d_a3_a9_proc_1 + 964.651409429972 pi_d_a9_a3_proc_2
      + 1291.163137956710 pi_d_a9_a3_proc_1
      + 2983.061075673927 pi_d_a4_a5_proc_2
      + 1661.453300492025 pi_d_a4_a5_proc_1
      + 2577.385331393094 pi_d_a4_a5_proc_0
      + 1524.127937301230 pi_d_a5_a4_proc_2 + 202.520162119327 pi_d_a5_a4_proc_1
      + 1118.452193020396 pi_d_a5_a4_proc_0
      + 2047.662948031128 pi_d_a4_a6_proc_2 + 72.073505234115 pi_d_a4_a6_proc_1
      + 1831.632255325377 pi_d_a4_a6_proc_0
      + 2769.083808970714 pi_d_a6_a4_proc_2 + 793.494366173702 pi_d_a6_a4_proc_1
      + 2553.053116264964 pi_d_a6_a4_proc_0
      + 3418.112833374380 pi_d_a4_a7_proc_2
      + 2241.854205564314 pi_d_a4_a7_proc_1
      + 2323.597403981945 pi_d_a4_a7_proc_0
      + 1451.403204760620 pi_d_a7_a4_proc_2 + 275.144576950555 pi_d_a7_a4_proc_1
      + 356.887775368186 pi_d_a7_a4_proc_0 + 2167.340893650048 pi_d_a4_a8_proc_1
      + 2185.273271104591 pi_d_a4_a8_proc_0 + 331.726729386569 pi_d_a8_a4_proc_1
      + 349.659106841112 pi_d_a8_a4_proc_0 + 2820.201632362963 pi_d_a4_a9_proc_2
      + 630.713361872271 pi_d_a4_a9_proc_1 + 2496.914775416817 pi_d_a4_a9_proc_0
      + 2210.648452594929 pi_d_a9_a4_proc_2 + 21.160182104237 pi_d_a9_a4_proc_1
      + 1887.361595648782 pi_d_a9_a4_proc_0 + 985.618816234189 pi_d_a5_a6_proc_2
      + 204.421596290135 pi_d_a5_a6_proc_1 + 363.912378265786 pi_d_a5_a6_proc_0
      + 3305.316955707449 pi_d_a6_a5_proc_2
      + 2524.119735763395 pi_d_a6_a5_proc_1
      + 2683.610517739046 pi_d_a6_a5_proc_0
      + 2679.496722867266 pi_d_a5_a7_proc_2
      + 2697.630317910158 pi_d_a5_a7_proc_1
      + 1179.305548212179 pi_d_a5_a7_proc_0
      + 1664.208330207531 pi_d_a7_a5_proc_2
      + 1682.341925250423 pi_d_a7_a5_proc_1 + 164.017155552444 pi_d_a7_a5_proc_0
      + 2763.142770784412 pi_d_a5_a8_proc_1
      + 1181.007180123346 pi_d_a5_a8_proc_0
      + 1598.898312897916 pi_d_a8_a5_proc_1 + 16.762722236849 pi_d_a8_a5_proc_0
      + 3509.750916137459 pi_d_a5_a9_proc_2
      + 2514.654868499725 pi_d_a5_a9_proc_1
      + 2780.788313928660 pi_d_a5_a9_proc_0 + 995.288183760230 pi_d_a9_a5_proc_2
      + 0.192136122496 pi_d_a9_a5_proc_1 + 266.325581551431 pi_d_a9_a5_proc_0
      + 1789.550348690170 pi_d_a6_a7_proc_2
      + 1153.702276117953 pi_d_a6_a7_proc_1 + 479.004225610166 pi_d_a6_a7_proc_0
      + 2863.712448411311 pi_d_a7_a6_proc_2
      + 2227.864375839094 pi_d_a7_a6_proc_1
      + 1553.166325331306 pi_d_a7_a6_proc_0
      + 2053.288242101428 pi_d_a6_a8_proc_1
      + 1314.779370630554 pi_d_a6_a8_proc_0
      + 1310.347250377366 pi_d_a8_a6_proc_1 + 571.838378906491 pi_d_a8_a6_proc_0
      + 2525.716629496449 pi_d_a6_a9_proc_2 + 876.638914243606 pi_d_a6_a9_proc_1
      + 1986.399078862733 pi_d_a6_a9_proc_0
      + 2288.880214427924 pi_d_a9_a6_proc_2 + 639.802499175080 pi_d_a9_a6_proc_1
      + 1749.562663794208 pi_d_a9_a6_proc_0
      + 2583.250023130741 pi_d_a7_a8_proc_1 + 166.925599986236 pi_d_a7_a8_proc_0
      + 2431.816380455105 pi_d_a8_a7_proc_1 + 15.491957310600 pi_d_a8_a7_proc_0
      + 1873.336238261241 pi_d_a7_a9_proc_2
      + 1023.589337995344 pi_d_a7_a9_proc_1 + 455.533950940840 pi_d_a7_a9_proc_0
      + 2994.029886796291 pi_d_a9_a7_proc_2
      + 2144.282986530394 pi_d_a9_a7_proc_1
      + 1576.227599475890 pi_d_a9_a7_proc_0
      + 1084.868663574928 pi_d_a8_a9_proc_1 + 453.002455557337 pi_d_a8_a9_proc_0
      + 2065.072501472557 pi_d_a9_a8_proc_1
      + 1433.206293454966 pi_d_a9_a8_proc_0 + 0.000244145282 pi_y2_a0_proc_0
      + 0.717299439013 pi_y2_a0_proc_1 + 0.282456415705 pi_y2_a0_proc_2
      + 0.744438073696 pi_y2_a1_proc_0 + 0.000000000000 pi_y2_a1_proc_1
      + 0.255561926304 pi_y2_a1_proc_2 + 0.000000000000 pi_y2_a2_proc_0
      + 0.000000000931 pi_y2_a2_proc_1 + 0.999999999069 pi_y2_a2_proc_2
      + 0.000000000000 pi_y2_a3_proc_1 + pi_y2_a3_proc_2
      + 0.000000000000 pi_y2_a4_proc_0 + 0.999999999609 pi_y2_a4_proc_1
      + 0.000000000390 pi_y2_a4_proc_2 + 0.531463623047 pi_y2_a5_proc_0
      + 0.259549498558 pi_y2_a5_proc_1 + 0.208986878395 pi_y2_a5_proc_2
      + 0.257676720353 pi_y2_a6_proc_0 + 0.656372070578 pi_y2_a6_proc_1
      + 0.085951209068 pi_y2_a6_proc_2 + 0.935021788811 pi_y2_a7_proc_0
      + 0.000000484288 pi_y2_a7_proc_1 + 0.064977726901 pi_y2_a7_proc_2
      + 0.992872663773 pi_y2_a8_proc_0 + 0.007127336227 pi_y2_a8_proc_1
      + 0.257839280180 pi_y2_a9_proc_0 + 0.741306222975 pi_y2_a9_proc_1
      + 0.000854496844 pi_y2_a9_proc_2
Subject To
 c1: 0.001169590643 pi_nr_a0 + 0.002053388090 pi_nr_a1 + 0.000920810313 pi_nr_a2
     + 0.002232142857 pi_nr_a3 + 0.000960614793 pi_nr_a4
     + 0.001113585746 pi_nr_a5 + 0.001047120419 pi_nr_a6
     + 0.001424501425 pi_nr_a7 + 0.001362397820 pi_nr_a8
     + 0.002380952381 pi_nr_a9 + pi_p_a2_a4 + 2 pi_p_a5_a0 + pi_p_a6_a7
     + pi_p_a8_a6 + pi_p_a6_a9 + pi_p_a7_a3 + 3774 pi_d_a0_a1_proc_2
     + 2516 pi_d_a0_a1_proc_1 + 2516 pi_d_a0_a1_proc_0 + 1259 pi_d_a1_a0_proc_2
     + pi_d_a1_a0_proc_1 + pi_d_a1_a0_proc_0 + 2516 pi_d_a0_a2_proc_2
     + 2516 pi_d_a0_a2_proc_1 + 3774 pi_d_a0_a2_proc_0 + pi_d_a2_a0_proc_2
     + pi_d_a2_a0_proc_1 + 1259 pi_d_a2_a0_proc_0 + 2517 pi_d_a0_a3_proc_2
     + 2517 pi_d_a0_a3_proc_1 + 2517 pi_d_a0_a4_proc_2 + pi_d_a0_a4_proc_1
     + 2517 pi_d_a0_a4_proc_0 + 2516 pi_d_a4_a0_proc_2 + 2516 pi_d_a4_a0_proc_0
     + 3773 pi_d_a0_a5_proc_2 + 2515 pi_d_a0_a5_proc_1 + 2515 pi_d_a0_a5_proc_0
     + 1260 pi_d_a5_a0_proc_2 + 2 pi_d_a5_a0_proc_1 + 2 pi_d_a5_a0_proc_0
     + 2515 pi_d_a0_a6_proc_2 - pi_d_a0_a6_proc_1 + 2515 pi_d_a0_a6_proc_0
     + 2518 pi_d_a6_a0_proc_2 + 2 pi_d_a6_a0_proc_1 + 2518 pi_d_a6_a0_proc_0
     + 3774 pi_d_a0_a7_proc_2 + 2516 pi_d_a0_a7_proc_1 + 2516 pi_d_a0_a7_proc_0
     + 1259 pi_d_a7_a0_proc_2 + pi_d_a7_a0_proc_1 + pi_d_a7_a0_proc_0
     + 24 pi_d_a0_a8_proc_1 + 24 pi_d_a0_a8_proc_0 + 2493 pi_d_a8_a0_proc_1
     + 2493 pi_d_a8_a0_proc_0 + 2516 pi_d_a0_a9_proc_2 + 2516 pi_d_a0_a9_proc_0
     + 2517 pi_d_a9_a0_proc_2 + pi_d_a9_a0_proc_1 + 2517 pi_d_a9_a0_proc_0
     + 9 pi_d_a1_a2_proc_2 + 1267 pi_d_a1_a2_proc_1 + 9 pi_d_a1_a2_proc_0
     + 2508 pi_d_a2_a1_proc_2 + 3766 pi_d_a2_a1_proc_1 + 2508 pi_d_a2_a1_proc_0
     + 2517 pi_d_a1_a3_proc_2 + 3775 pi_d_a1_a3_proc_1 + 1258 pi_d_a3_a1_proc_1
     + 3775 pi_d_a1_a4_proc_2 + 2517 pi_d_a1_a4_proc_1 + 2517 pi_d_a1_a4_proc_0
     + 1258 pi_d_a4_a1_proc_2 + 2515 pi_d_a1_a5_proc_2 + 2515 pi_d_a1_a5_proc_1
     - pi_d_a1_a5_proc_0 + 2518 pi_d_a5_a1_proc_2 + 2518 pi_d_a5_a1_proc_1
     + 2 pi_d_a5_a1_proc_0 + 1257 pi_d_a1_a6_proc_2 - pi_d_a1_a6_proc_1
     - pi_d_a1_a6_proc_0 + 3776 pi_d_a6_a1_proc_2 + 2518 pi_d_a6_a1_proc_1
     + 2518 pi_d_a6_a1_proc_0 + 2516 pi_d_a1_a7_proc_2 + 2516 pi_d_a1_a7_proc_1
     + 2517 pi_d_a7_a1_proc_2 + 2517 pi_d_a7_a1_proc_1 + pi_d_a7_a1_proc_0
     + 2514 pi_d_a1_a8_proc_1 - 2 pi_d_a1_a8_proc_0 + 2519 pi_d_a8_a1_proc_1
     + 3 pi_d_a8_a1_proc_0 + 3774 pi_d_a1_a9_proc_2 + 2516 pi_d_a1_a9_proc_1
     + 2516 pi_d_a1_a9_proc_0 + 1259 pi_d_a9_a1_proc_2 + pi_d_a9_a1_proc_1
     + pi_d_a9_a1_proc_0 + pi_d_a2_a3_proc_2 + 2517 pi_d_a2_a3_proc_1
     + 2516 pi_d_a3_a2_proc_1 + 2517 pi_d_a2_a4_proc_2 + 2517 pi_d_a2_a4_proc_1
     + 3775 pi_d_a2_a4_proc_0 + 1258 pi_d_a4_a2_proc_0 - pi_d_a2_a5_proc_2
     + 1257 pi_d_a2_a5_proc_1 - pi_d_a2_a5_proc_0 + 2518 pi_d_a5_a2_proc_2
     + 3776 pi_d_a5_a2_proc_1 + 2518 pi_d_a5_a2_proc_0 + 2515 pi_d_a2_a6_proc_2
     + 2515 pi_d_a2_a6_proc_1 + 3773 pi_d_a2_a6_proc_0 + 2 pi_d_a6_a2_proc_2
     + 2 pi_d_a6_a2_proc_1 + 1260 pi_d_a6_a2_proc_0 + 1258 pi_d_a2_a7_proc_1
     + 2517 pi_d_a7_a2_proc_2 + 3775 pi_d_a7_a2_proc_1 + 2517 pi_d_a7_a2_proc_0
     + 1256 pi_d_a2_a8_proc_1 - 2 pi_d_a2_a8_proc_0 + 3777 pi_d_a8_a2_proc_1
     + 2519 pi_d_a8_a2_proc_0 + 2516 pi_d_a2_a9_proc_2 + 2516 pi_d_a2_a9_proc_1
     + 3774 pi_d_a2_a9_proc_0 + pi_d_a9_a2_proc_2 + pi_d_a9_a2_proc_1
     + 1259 pi_d_a9_a2_proc_0 + 2517 pi_d_a3_a4_proc_2 + 2517 pi_d_a3_a4_proc_1
     - pi_d_a3_a5_proc_2 + 1257 pi_d_a3_a5_proc_1 + 2518 pi_d_a5_a3_proc_2
     + 3776 pi_d_a5_a3_proc_1 + 2489 pi_d_a3_a6_proc_2 + 2489 pi_d_a3_a6_proc_1
     + 28 pi_d_a6_a3_proc_2 + 28 pi_d_a6_a3_proc_1 + 2516 pi_d_a3_a7_proc_2
     + 3774 pi_d_a3_a7_proc_1 + pi_d_a7_a3_proc_2 + 1259 pi_d_a7_a3_proc_1
     - 2 pi_d_a3_a8_proc_1 + 5035 pi_d_a8_a3_proc_1 + 2516 pi_d_a3_a9_proc_2
     + 2516 pi_d_a3_a9_proc_1 + pi_d_a9_a3_proc_2 + pi_d_a9_a3_proc_1
     + 3765 pi_d_a4_a5_proc_2 + 2507 pi_d_a4_a5_proc_1 + 2507 pi_d_a4_a5_proc_0
     + 1268 pi_d_a5_a4_proc_2 + 10 pi_d_a5_a4_proc_1 + 10 pi_d_a5_a4_proc_0
     + 2514 pi_d_a4_a6_proc_2 - 2 pi_d_a4_a6_proc_1 + 2514 pi_d_a4_a6_proc_0
     + 2519 pi_d_a6_a4_proc_2 + 3 pi_d_a6_a4_proc_1 + 2519 pi_d_a6_a4_proc_0
     + 3773 pi_d_a4_a7_proc_2 + 2515 pi_d_a4_a7_proc_1 + 2515 pi_d_a4_a7_proc_0
     + 1260 pi_d_a7_a4_proc_2 + 2 pi_d_a7_a4_proc_1 + 2 pi_d_a7_a4_proc_0
     + 2487 pi_d_a4_a8_proc_1 + 2487 pi_d_a4_a8_proc_0 + 30 pi_d_a8_a4_proc_1
     + 30 pi_d_a8_a4_proc_0 + 2515 pi_d_a4_a9_proc_2 - pi_d_a4_a9_proc_1
     + 2515 pi_d_a4_a9_proc_0 + 2518 pi_d_a9_a4_proc_2 + 2 pi_d_a9_a4_proc_1
     + 2518 pi_d_a9_a4_proc_0 + 1258 pi_d_a5_a6_proc_2 + 3775 pi_d_a6_a5_proc_2
     + 2517 pi_d_a6_a5_proc_1 + 2517 pi_d_a6_a5_proc_0 + 2517 pi_d_a5_a7_proc_2
     + 2517 pi_d_a5_a7_proc_1 + pi_d_a5_a7_proc_0 + 2516 pi_d_a7_a5_proc_2
     + 2516 pi_d_a7_a5_proc_1 + 2516 pi_d_a5_a8_proc_1 + 2517 pi_d_a8_a5_proc_1
     + pi_d_a8_a5_proc_0 + 3775 pi_d_a5_a9_proc_2 + 2517 pi_d_a5_a9_proc_1
     + 2517 pi_d_a5_a9_proc_0 + 1258 pi_d_a9_a5_proc_2 + 1259 pi_d_a6_a7_proc_2
     + pi_d_a6_a7_proc_1 + pi_d_a6_a7_proc_0 + 3774 pi_d_a7_a6_proc_2
     + 2516 pi_d_a7_a6_proc_1 + 2516 pi_d_a7_a6_proc_0 + 2515 pi_d_a6_a8_proc_1
     + 2515 pi_d_a6_a8_proc_0 + 2 pi_d_a8_a6_proc_1 + 2 pi_d_a8_a6_proc_0
     + 2517 pi_d_a6_a9_proc_2 + pi_d_a6_a9_proc_1 + 2517 pi_d_a6_a9_proc_0
     + 2516 pi_d_a9_a6_proc_2 + 2516 pi_d_a9_a6_proc_0 + 2515 pi_d_a7_a8_proc_1
     - pi_d_a7_a8_proc_0 + 2518 pi_d_a8_a7_proc_1 + 2 pi_d_a8_a7_proc_0
     + 1259 pi_d_a7_a9_proc_2 + pi_d_a7_a9_proc_1 + pi_d_a7_a9_proc_0
     + 3774 pi_d_a9_a7_proc_2 + 2516 pi_d_a9_a7_proc_1 + 2516 pi_d_a9_a7_proc_0
     + 2 pi_d_a8_a9_proc_1 + 2 pi_d_a8_a9_proc_0 + 2515 pi_d_a9_a8_proc_1
     + 2515 pi_d_a9_a8_proc_0 + pi_y2_a0_proc_1 + pi_y2_a1_proc_0
     + pi_y2_a2_proc_2 + pi_y2_a3_proc_2 + pi_y2_a4_proc_1 + pi_y2_a5_proc_0
     + pi_y2_a6_proc_1 + pi_y2_a7_proc_0 + pi_y2_a8_proc_0 + pi_y2_a9_proc_1 = 
     0.000166833500
 c2: pi_nr_a0 + pi_nr_a1 + pi_nr_a2 + pi_nr_a3 + pi_nr_a4 + pi_nr_a5 + pi_nr_a6
     + pi_nr_a7 + pi_nr_a8 + pi_nr_a9 - pi_y1_a0 - pi_y1_a1 - pi_y1_a2
     - pi_y1_a3 - pi_y1_a4 - pi_y1_a5 - pi_y1_a6 - pi_y1_a7 - pi_y1_a8
     - pi_y1_a9 >= 1
 c3: pi_p_a0_a1 - pi_p_a3_a0 - pi_p_a5_a0 + pi_d_a0_a1_proc_2
     + pi_d_a0_a1_proc_1 + pi_d_a0_a1_proc_0 - pi_d_a1_a0_proc_2
     - pi_d_a1_a0_proc_1 - pi_d_a1_a0_proc_0 + pi_d_a0_a2_proc_2
     + pi_d_a0_a2_proc_1 + pi_d_a0_a2_proc_0 - pi_d_a2_a0_proc_2
     - pi_d_a2_a0_proc_1 - pi_d_a2_a0_proc_0 + pi_d_a0_a3_proc_2
     + pi_d_a0_a3_proc_1 - pi_d_a3_a0_proc_2 - pi_d_a3_a0_proc_1
     + pi_d_a0_a4_proc_2 + pi_d_a0_a4_proc_1 + pi_d_a0_a4_proc_0
     - pi_d_a4_a0_proc_2 - pi_d_a4_a0_proc_1 - pi_d_a4_a0_proc_0
     + pi_d_a0_a5_proc_2 + pi_d_a0_a5_proc_1 + pi_d_a0_a5_proc_0
     - pi_d_a5_a0_proc_2 - pi_d_a5_a0_proc_1 - pi_d_a5_a0_proc_0
     + pi_d_a0_a6_proc_2 + pi_d_a0_a6_proc_1 + pi_d_a0_a6_proc_0
     - pi_d_a6_a0_proc_2 - pi_d_a6_a0_proc_1 - pi_d_a6_a0_proc_0
     + pi_d_a0_a7_proc_2 + pi_d_a0_a7_proc_1 + pi_d_a0_a7_proc_0
     - pi_d_a7_a0_proc_2 - pi_d_a7_a0_proc_1 - pi_d_a7_a0_proc_0
     + pi_d_a0_a8_proc_1 + pi_d_a0_a8_proc_0 - pi_d_a8_a0_proc_1
     - pi_d_a8_a0_proc_0 + pi_d_a0_a9_proc_2 + pi_d_a0_a9_proc_1
     + pi_d_a0_a9_proc_0 - pi_d_a9_a0_proc_2 - pi_d_a9_a0_proc_1
     - pi_d_a9_a0_proc_0 >= 0
 c4: 1068 pi_p_a0_a1 + 1068 pi_d_a0_a1_proc_0 + 1068 pi_d_a0_a2_proc_0
     + 1068 pi_d_a0_a4_proc_0 + 1068 pi_d_a0_a5_proc_0 + 1068 pi_d_a0_a6_proc_0
     + 1068 pi_d_a0_a7_proc_0 + 1068 pi_d_a0_a8_proc_0 + 1068 pi_d_a0_a9_proc_0
     + pi_y1_a0 + pi_y2_a0_proc_0 >= 0
 c5: 855 pi_p_a0_a1 + 855 pi_d_a0_a1_proc_1 + 855 pi_d_a0_a2_proc_1
     + 855 pi_d_a0_a3_proc_1 + 855 pi_d_a0_a4_proc_1 + 855 pi_d_a0_a5_proc_1
     + 855 pi_d_a0_a6_proc_1 + 855 pi_d_a0_a7_proc_1 + 855 pi_d_a0_a8_proc_1
     + 855 pi_d_a0_a9_proc_1 + pi_y1_a0 + pi_y2_a0_proc_1 >= 0
 c6: 1040 pi_p_a0_a1 + 1040 pi_d_a0_a1_proc_2 + 1040 pi_d_a0_a2_proc_2
     + 1040 pi_d_a0_a3_proc_2 + 1040 pi_d_a0_a4_proc_2 + 1040 pi_d_a0_a5_proc_2
     + 1040 pi_d_a0_a6_proc_2 + 1040 pi_d_a0_a7_proc_2 + 1040 pi_d_a0_a9_proc_2
     + pi_y1_a0 + pi_y2_a0_proc_2 >= 0
 c7: - pi_p_a0_a1 + pi_p_a1_a2 + pi_p_a1_a7 - pi_d_a0_a1_proc_2
     - pi_d_a0_a1_proc_1 - pi_d_a0_a1_proc_0 + pi_d_a1_a0_proc_2
     + pi_d_a1_a0_proc_1 + pi_d_a1_a0_proc_0 + pi_d_a1_a2_proc_2
     + pi_d_a1_a2_proc_1 + pi_d_a1_a2_proc_0 - pi_d_a2_a1_proc_2
     - pi_d_a2_a1_proc_1 - pi_d_a2_a1_proc_0 + pi_d_a1_a3_proc_2
     + pi_d_a1_a3_proc_1 - pi_d_a3_a1_proc_2 - pi_d_a3_a1_proc_1
     + pi_d_a1_a4_proc_2 + pi_d_a1_a4_proc_1 + pi_d_a1_a4_proc_0
     - pi_d_a4_a1_proc_2 - pi_d_a4_a1_proc_1 - pi_d_a4_a1_proc_0
     + pi_d_a1_a5_proc_2 + pi_d_a1_a5_proc_1 + pi_d_a1_a5_proc_0
     - pi_d_a5_a1_proc_2 - pi_d_a5_a1_proc_1 - pi_d_a5_a1_proc_0
     + pi_d_a1_a6_proc_2 + pi_d_a1_a6_proc_1 + pi_d_a1_a6_proc_0
     - pi_d_a6_a1_proc_2 - pi_d_a6_a1_proc_1 - pi_d_a6_a1_proc_0
     + pi_d_a1_a7_proc_2 + pi_d_a1_a7_proc_1 + pi_d_a1_a7_proc_0
     - pi_d_a7_a1_proc_2 - pi_d_a7_a1_proc_1 - pi_d_a7_a1_proc_0
     + pi_d_a1_a8_proc_1 + pi_d_a1_a8_proc_0 - pi_d_a8_a1_proc_1
     - pi_d_a8_a1_proc_0 + pi_d_a1_a9_proc_2 + pi_d_a1_a9_proc_1
     + pi_d_a1_a9_proc_0 - pi_d_a9_a1_proc_2 - pi_d_a9_a1_proc_1
     - pi_d_a9_a1_proc_0 >= 0
 c8: 487 pi_p_a1_a2 + 487 pi_p_a1_a7 + 487 pi_d_a1_a0_proc_0
     + 487 pi_d_a1_a2_proc_0 + 487 pi_d_a1_a4_proc_0 + 487 pi_d_a1_a5_proc_0
     + 487 pi_d_a1_a6_proc_0 + 487 pi_d_a1_a7_proc_0 + 487 pi_d_a1_a8_proc_0
     + 487 pi_d_a1_a9_proc_0 + pi_y1_a1 + pi_y2_a1_proc_0 >= 0
 c9: 1254 pi_p_a1_a2 + 1254 pi_p_a1_a7 + 1254 pi_d_a1_a0_proc_1
     + 1254 pi_d_a1_a2_proc_1 + 1254 pi_d_a1_a3_proc_1 + 1254 pi_d_a1_a4_proc_1
     + 1254 pi_d_a1_a5_proc_1 + 1254 pi_d_a1_a6_proc_1 + 1254 pi_d_a1_a7_proc_1
     + 1254 pi_d_a1_a8_proc_1 + 1254 pi_d_a1_a9_proc_1 + pi_y1_a1
     + pi_y2_a1_proc_1 >= 0
 c10: 673 pi_p_a1_a2 + 673 pi_p_a1_a7 + 673 pi_d_a1_a0_proc_2
      + 673 pi_d_a1_a2_proc_2 + 673 pi_d_a1_a3_proc_2 + 673 pi_d_a1_a4_proc_2
      + 673 pi_d_a1_a5_proc_2 + 673 pi_d_a1_a6_proc_2 + 673 pi_d_a1_a7_proc_2
      + 673 pi_d_a1_a9_proc_2 + pi_y1_a1 + pi_y2_a1_proc_2 >= 0
 c11: - pi_p_a1_a2 + pi_p_a2_a4 - pi_p_a4_a2 - pi_d_a0_a2_proc_2
      - pi_d_a0_a2_proc_1 - pi_d_a0_a2_proc_0 + pi_d_a2_a0_proc_2
      + pi_d_a2_a0_proc_1 + pi_d_a2_a0_proc_0 - pi_d_a1_a2_proc_2
      - pi_d_a1_a2_proc_1 - pi_d_a1_a2_proc_0 + pi_d_a2_a1_proc_2
      + pi_d_a2_a1_proc_1 + pi_d_a2_a1_proc_0 + pi_d_a2_a3_proc_2
      + pi_d_a2_a3_proc_1 - pi_d_a3_a2_proc_2 - pi_d_a3_a2_proc_1
      + pi_d_a2_a4_proc_2 + pi_d_a2_a4_proc_1 + pi_d_a2_a4_proc_0
      - pi_d_a4_a2_proc_2 - pi_d_a4_a2_proc_1 - pi_d_a4_a2_proc_0
      + pi_d_a2_a5_proc_2 + pi_d_a2_a5_proc_1 + pi_d_a2_a5_proc_0
      - pi_d_a5_a2_proc_2 - pi_d_a5_a2_proc_1 - pi_d_a5_a2_proc_0
      + pi_d_a2_a6_proc_2 + pi_d_a2_a6_proc_1 + pi_d_a2_a6_proc_0
      - pi_d_a6_a2_proc_2 - pi_d_a6_a2_proc_1 - pi_d_a6_a2_proc_0
      + pi_d_a2_a7_proc_2 + pi_d_a2_a7_proc_1 + pi_d_a2_a7_proc_0
      - pi_d_a7_a2_proc_2 - pi_d_a7_a2_proc_1 - pi_d_a7_a2_proc_0
      + pi_d_a2_a8_proc_1 + pi_d_a2_a8_proc_0 - pi_d_a8_a2_proc_1
      - pi_d_a8_a2_proc_0 + pi_d_a2_a9_proc_2 + pi_d_a2_a9_proc_1
      + pi_d_a2_a9_proc_0 - pi_d_a9_a2_proc_2 - pi_d_a9_a2_proc_1
      - pi_d_a9_a2_proc_0 >= 0
 c12: 1041 pi_p_a2_a4 + 1041 pi_d_a2_a0_proc_0 + 1041 pi_d_a2_a1_proc_0
      + 1041 pi_d_a2_a4_proc_0 + 1041 pi_d_a2_a5_proc_0 + 1041 pi_d_a2_a6_proc_0
      + 1041 pi_d_a2_a7_proc_0 + 1041 pi_d_a2_a8_proc_0 + 1041 pi_d_a2_a9_proc_0
      + pi_y1_a2 + pi_y2_a2_proc_0 >= 0
 c13: 1258 pi_p_a2_a4 + 1258 pi_d_a2_a0_proc_1 + 1258 pi_d_a2_a1_proc_1
      + 1258 pi_d_a2_a3_proc_1 + 1258 pi_d_a2_a4_proc_1 + 1258 pi_d_a2_a5_proc_1
      + 1258 pi_d_a2_a6_proc_1 + 1258 pi_d_a2_a7_proc_1 + 1258 pi_d_a2_a8_proc_1
      + 1258 pi_d_a2_a9_proc_1 + pi_y1_a2 + pi_y2_a2_proc_1 >= 0
 c14: 1086 pi_p_a2_a4 + 1086 pi_d_a2_a0_proc_2 + 1086 pi_d_a2_a1_proc_2
      + 1086 pi_d_a2_a3_proc_2 + 1086 pi_d_a2_a4_proc_2 + 1086 pi_d_a2_a5_proc_2
      + 1086 pi_d_a2_a6_proc_2 + 1086 pi_d_a2_a7_proc_2 + 1086 pi_d_a2_a9_proc_2
      + pi_y1_a2 + pi_y2_a2_proc_2 >= 0
 c15: pi_p_a3_a0 - pi_p_a7_a3 - pi_d_a0_a3_proc_2 - pi_d_a0_a3_proc_1
      + pi_d_a3_a0_proc_2 + pi_d_a3_a0_proc_1 - pi_d_a1_a3_proc_2
      - pi_d_a1_a3_proc_1 + pi_d_a3_a1_proc_2 + pi_d_a3_a1_proc_1
      - pi_d_a2_a3_proc_2 - pi_d_a2_a3_proc_1 + pi_d_a3_a2_proc_2
      + pi_d_a3_a2_proc_1 + pi_d_a3_a4_proc_2 + pi_d_a3_a4_proc_1
      - pi_d_a4_a3_proc_2 - pi_d_a4_a3_proc_1 + pi_d_a3_a5_proc_2
      + pi_d_a3_a5_proc_1 - pi_d_a5_a3_proc_2 - pi_d_a5_a3_proc_1
      + pi_d_a3_a6_proc_2 + pi_d_a3_a6_proc_1 - pi_d_a6_a3_proc_2
      - pi_d_a6_a3_proc_1 + pi_d_a3_a7_proc_2 + pi_d_a3_a7_proc_1
      - pi_d_a7_a3_proc_2 - pi_d_a7_a3_proc_1 + pi_d_a3_a8_proc_1
      - pi_d_a8_a3_proc_1 + pi_d_a3_a9_proc_2 + pi_d_a3_a9_proc_1
      - pi_d_a9_a3_proc_2 - pi_d_a9_a3_proc_1 >= 0
 c16: 1000 pi_p_a3_a0 + 1000 pi_d_a3_a0_proc_1 + 1000 pi_d_a3_a1_proc_1
      + 1000 pi_d_a3_a2_proc_1 + 1000 pi_d_a3_a4_proc_1 + 1000 pi_d_a3_a5_proc_1
      + 1000 pi_d_a3_a6_proc_1 + 1000 pi_d_a3_a7_proc_1 + 1000 pi_d_a3_a8_proc_1
      + 1000 pi_d_a3_a9_proc_1 + pi_y1_a3 + pi_y2_a3_proc_1 >= 0
 c17: 448 pi_p_a3_a0 + 448 pi_d_a3_a0_proc_2 + 448 pi_d_a3_a1_proc_2
      + 448 pi_d_a3_a2_proc_2 + 448 pi_d_a3_a4_proc_2 + 448 pi_d_a3_a5_proc_2
      + 448 pi_d_a3_a6_proc_2 + 448 pi_d_a3_a7_proc_2 + 448 pi_d_a3_a9_proc_2
      + pi_y1_a3 + pi_y2_a3_proc_2 >= 0
 c18: - pi_p_a2_a4 + pi_p_a4_a9 + pi_p_a4_a2 - pi_d_a0_a4_proc_2
      - pi_d_a0_a4_proc_1 - pi_d_a0_a4_proc_0 + pi_d_a4_a0_proc_2
      + pi_d_a4_a0_proc_1 + pi_d_a4_a0_proc_0 - pi_d_a1_a4_proc_2
      - pi_d_a1_a4_proc_1 - pi_d_a1_a4_proc_0 + pi_d_a4_a1_proc_2
      + pi_d_a4_a1_proc_1 + pi_d_a4_a1_proc_0 - pi_d_a2_a4_proc_2
      - pi_d_a2_a4_proc_1 - pi_d_a2_a4_proc_0 + pi_d_a4_a2_proc_2
      + pi_d_a4_a2_proc_1 + pi_d_a4_a2_proc_0 - pi_d_a3_a4_proc_2
      - pi_d_a3_a4_proc_1 + pi_d_a4_a3_proc_2 + pi_d_a4_a3_proc_1
      + pi_d_a4_a5_proc_2 + pi_d_a4_a5_proc_1 + pi_d_a4_a5_proc_0
      - pi_d_a5_a4_proc_2 - pi_d_a5_a4_proc_1 - pi_d_a5_a4_proc_0
      + pi_d_a4_a6_proc_2 + pi_d_a4_a6_proc_1 + pi_d_a4_a6_proc_0
      - pi_d_a6_a4_proc_2 - pi_d_a6_a4_proc_1 - pi_d_a6_a4_proc_0
      + pi_d_a4_a7_proc_2 + pi_d_a4_a7_proc_1 + pi_d_a4_a7_proc_0
      - pi_d_a7_a4_proc_2 - pi_d_a7_a4_proc_1 - pi_d_a7_a4_proc_0
      + pi_d_a4_a8_proc_1 + pi_d_a4_a8_proc_0 - pi_d_a8_a4_proc_1
      - pi_d_a8_a4_proc_0 + pi_d_a4_a9_proc_2 + pi_d_a4_a9_proc_1
      + pi_d_a4_a9_proc_0 - pi_d_a9_a4_proc_2 - pi_d_a9_a4_proc_1
      - pi_d_a9_a4_proc_0 >= 0
 c19: 873 pi_p_a4_a9 + 873 pi_p_a4_a2 + 873 pi_d_a4_a0_proc_0
      + 873 pi_d_a4_a1_proc_0 + 873 pi_d_a4_a2_proc_0 + 873 pi_d_a4_a5_proc_0
      + 873 pi_d_a4_a6_proc_0 + 873 pi_d_a4_a7_proc_0 + 873 pi_d_a4_a8_proc_0
      + 873 pi_d_a4_a9_proc_0 + pi_y1_a4 + pi_y2_a4_proc_0 >= 0
 c20: 1041 pi_p_a4_a9 + 1041 pi_p_a4_a2 + 1041 pi_d_a4_a0_proc_1
      + 1041 pi_d_a4_a1_proc_1 + 1041 pi_d_a4_a2_proc_1 + 1041 pi_d_a4_a3_proc_1
      + 1041 pi_d_a4_a5_proc_1 + 1041 pi_d_a4_a6_proc_1 + 1041 pi_d_a4_a7_proc_1
      + 1041 pi_d_a4_a8_proc_1 + 1041 pi_d_a4_a9_proc_1 + pi_y1_a4
      + pi_y2_a4_proc_1 >= 0
 c21: 1063 pi_p_a4_a9 + 1063 pi_p_a4_a2 + 1063 pi_d_a4_a0_proc_2
      + 1063 pi_d_a4_a1_proc_2 + 1063 pi_d_a4_a2_proc_2 + 1063 pi_d_a4_a3_proc_2
      + 1063 pi_d_a4_a5_proc_2 + 1063 pi_d_a4_a6_proc_2 + 1063 pi_d_a4_a7_proc_2
      + 1063 pi_d_a4_a9_proc_2 + pi_y1_a4 + pi_y2_a4_proc_2 >= 0
 c22: pi_p_a5_a0 + pi_p_a5_a6 - pi_p_a7_a5 - pi_p_a9_a5 - pi_d_a0_a5_proc_2
      - pi_d_a0_a5_proc_1 - pi_d_a0_a5_proc_0 + pi_d_a5_a0_proc_2
      + pi_d_a5_a0_proc_1 + pi_d_a5_a0_proc_0 - pi_d_a1_a5_proc_2
      - pi_d_a1_a5_proc_1 - pi_d_a1_a5_proc_0 + pi_d_a5_a1_proc_2
      + pi_d_a5_a1_proc_1 + pi_d_a5_a1_proc_0 - pi_d_a2_a5_proc_2
      - pi_d_a2_a5_proc_1 - pi_d_a2_a5_proc_0 + pi_d_a5_a2_proc_2
      + pi_d_a5_a2_proc_1 + pi_d_a5_a2_proc_0 - pi_d_a3_a5_proc_2
      - pi_d_a3_a5_proc_1 + pi_d_a5_a3_proc_2 + pi_d_a5_a3_proc_1
      - pi_d_a4_a5_proc_2 - pi_d_a4_a5_proc_1 - pi_d_a4_a5_proc_0
      + pi_d_a5_a4_proc_2 + pi_d_a5_a4_proc_1 + pi_d_a5_a4_proc_0
      + pi_d_a5_a6_proc_2 + pi_d_a5_a6_proc_1 + pi_d_a5_a6_proc_0
      - pi_d_a6_a5_proc_2 - pi_d_a6_a5_proc_1 - pi_d_a6_a5_proc_0
      + pi_d_a5_a7_proc_2 + pi_d_a5_a7_proc_1 + pi_d_a5_a7_proc_0
      - pi_d_a7_a5_proc_2 - pi_d_a7_a5_proc_1 - pi_d_a7_a5_proc_0
      + pi_d_a5_a8_proc_1 + pi_d_a5_a8_proc_0 - pi_d_a8_a5_proc_1
      - pi_d_a8_a5_proc_0 + pi_d_a5_a9_proc_2 + pi_d_a5_a9_proc_1
      + pi_d_a5_a9_proc_0 - pi_d_a9_a5_proc_2 - pi_d_a9_a5_proc_1
      - pi_d_a9_a5_proc_0 >= 0
 c23: 898 pi_p_a5_a0 + 898 pi_p_a5_a6 + 898 pi_d_a5_a0_proc_0
      + 898 pi_d_a5_a1_proc_0 + 898 pi_d_a5_a2_proc_0 + 898 pi_d_a5_a4_proc_0
      + 898 pi_d_a5_a6_proc_0 + 898 pi_d_a5_a7_proc_0 + 898 pi_d_a5_a8_proc_0
      + 898 pi_d_a5_a9_proc_0 + pi_y1_a5 + pi_y2_a5_proc_0 >= 0
 c24: 737 pi_p_a5_a0 + 737 pi_p_a5_a6 + 737 pi_d_a5_a0_proc_1
      + 737 pi_d_a5_a1_proc_1 + 737 pi_d_a5_a2_proc_1 + 737 pi_d_a5_a3_proc_1
      + 737 pi_d_a5_a4_proc_1 + 737 pi_d_a5_a6_proc_1 + 737 pi_d_a5_a7_proc_1
      + 737 pi_d_a5_a8_proc_1 + 737 pi_d_a5_a9_proc_1 + pi_y1_a5
      + pi_y2_a5_proc_1 >= 0
 c25: 763 pi_p_a5_a0 + 763 pi_p_a5_a6 + 763 pi_d_a5_a0_proc_2
      + 763 pi_d_a5_a1_proc_2 + 763 pi_d_a5_a2_proc_2 + 763 pi_d_a5_a3_proc_2
      + 763 pi_d_a5_a4_proc_2 + 763 pi_d_a5_a6_proc_2 + 763 pi_d_a5_a7_proc_2
      + 763 pi_d_a5_a9_proc_2 + pi_y1_a5 + pi_y2_a5_proc_2 >= 0
 c26: - pi_p_a5_a6 + pi_p_a6_a7 - pi_p_a8_a6 + pi_p_a6_a8 + pi_p_a6_a9
      - pi_d_a0_a6_proc_2 - pi_d_a0_a6_proc_1 - pi_d_a0_a6_proc_0
      + pi_d_a6_a0_proc_2 + pi_d_a6_a0_proc_1 + pi_d_a6_a0_proc_0
      - pi_d_a1_a6_proc_2 - pi_d_a1_a6_proc_1 - pi_d_a1_a6_proc_0
      + pi_d_a6_a1_proc_2 + pi_d_a6_a1_proc_1 + pi_d_a6_a1_proc_0
      - pi_d_a2_a6_proc_2 - pi_d_a2_a6_proc_1 - pi_d_a2_a6_proc_0
      + pi_d_a6_a2_proc_2 + pi_d_a6_a2_proc_1 + pi_d_a6_a2_proc_0
      - pi_d_a3_a6_proc_2 - pi_d_a3_a6_proc_1 + pi_d_a6_a3_proc_2
      + pi_d_a6_a3_proc_1 - pi_d_a4_a6_proc_2 - pi_d_a4_a6_proc_1
      - pi_d_a4_a6_proc_0 + pi_d_a6_a4_proc_2 + pi_d_a6_a4_proc_1
      + pi_d_a6_a4_proc_0 - pi_d_a5_a6_proc_2 - pi_d_a5_a6_proc_1
      - pi_d_a5_a6_proc_0 + pi_d_a6_a5_proc_2 + pi_d_a6_a5_proc_1
      + pi_d_a6_a5_proc_0 + pi_d_a6_a7_proc_2 + pi_d_a6_a7_proc_1
      + pi_d_a6_a7_proc_0 - pi_d_a7_a6_proc_2 - pi_d_a7_a6_proc_1
      - pi_d_a7_a6_proc_0 + pi_d_a6_a8_proc_1 + pi_d_a6_a8_proc_0
      - pi_d_a8_a6_proc_1 - pi_d_a8_a6_proc_0 + pi_d_a6_a9_proc_2
      + pi_d_a6_a9_proc_1 + pi_d_a6_a9_proc_0 - pi_d_a9_a6_proc_2
      - pi_d_a9_a6_proc_1 - pi_d_a9_a6_proc_0 >= 0
 c27: 527 pi_p_a6_a7 + 527 pi_p_a6_a8 + 527 pi_p_a6_a9 + 527 pi_d_a6_a0_proc_0
      + 527 pi_d_a6_a1_proc_0 + 527 pi_d_a6_a2_proc_0 + 527 pi_d_a6_a4_proc_0
      + 527 pi_d_a6_a5_proc_0 + 527 pi_d_a6_a7_proc_0 + 527 pi_d_a6_a8_proc_0
      + 527 pi_d_a6_a9_proc_0 + pi_y1_a6 + pi_y2_a6_proc_0 >= 0
 c28: 955 pi_p_a6_a7 + 955 pi_p_a6_a8 + 955 pi_p_a6_a9 + 955 pi_d_a6_a0_proc_1
      + 955 pi_d_a6_a1_proc_1 + 955 pi_d_a6_a2_proc_1 + 955 pi_d_a6_a3_proc_1
      + 955 pi_d_a6_a4_proc_1 + 955 pi_d_a6_a5_proc_1 + 955 pi_d_a6_a7_proc_1
      + 955 pi_d_a6_a8_proc_1 + 955 pi_d_a6_a9_proc_1 + pi_y1_a6
      + pi_y2_a6_proc_1 >= 0
 c29: 907 pi_p_a6_a7 + 907 pi_p_a6_a8 + 907 pi_p_a6_a9 + 907 pi_d_a6_a0_proc_2
      + 907 pi_d_a6_a1_proc_2 + 907 pi_d_a6_a2_proc_2 + 907 pi_d_a6_a3_proc_2
      + 907 pi_d_a6_a4_proc_2 + 907 pi_d_a6_a5_proc_2 + 907 pi_d_a6_a7_proc_2
      + 907 pi_d_a6_a9_proc_2 + pi_y1_a6 + pi_y2_a6_proc_2 >= 0
 c30: - pi_p_a6_a7 - pi_p_a9_a7 - pi_p_a1_a7 + pi_p_a7_a5 + pi_p_a7_a3
      - pi_d_a0_a7_proc_2 - pi_d_a0_a7_proc_1 - pi_d_a0_a7_proc_0
      + pi_d_a7_a0_proc_2 + pi_d_a7_a0_proc_1 + pi_d_a7_a0_proc_0
      - pi_d_a1_a7_proc_2 - pi_d_a1_a7_proc_1 - pi_d_a1_a7_proc_0
      + pi_d_a7_a1_proc_2 + pi_d_a7_a1_proc_1 + pi_d_a7_a1_proc_0
      - pi_d_a2_a7_proc_2 - pi_d_a2_a7_proc_1 - pi_d_a2_a7_proc_0
      + pi_d_a7_a2_proc_2 + pi_d_a7_a2_proc_1 + pi_d_a7_a2_proc_0
      - pi_d_a3_a7_proc_2 - pi_d_a3_a7_proc_1 + pi_d_a7_a3_proc_2
      + pi_d_a7_a3_proc_1 - pi_d_a4_a7_proc_2 - pi_d_a4_a7_proc_1
      - pi_d_a4_a7_proc_0 + pi_d_a7_a4_proc_2 + pi_d_a7_a4_proc_1
      + pi_d_a7_a4_proc_0 - pi_d_a5_a7_proc_2 - pi_d_a5_a7_proc_1
      - pi_d_a5_a7_proc_0 + pi_d_a7_a5_proc_2 + pi_d_a7_a5_proc_1
      + pi_d_a7_a5_proc_0 - pi_d_a6_a7_proc_2 - pi_d_a6_a7_proc_1
      - pi_d_a6_a7_proc_0 + pi_d_a7_a6_proc_2 + pi_d_a7_a6_proc_1
      + pi_d_a7_a6_proc_0 + pi_d_a7_a8_proc_1 + pi_d_a7_a8_proc_0
      - pi_d_a8_a7_proc_1 - pi_d_a8_a7_proc_0 + pi_d_a7_a9_proc_2
      + pi_d_a7_a9_proc_1 + pi_d_a7_a9_proc_0 - pi_d_a9_a7_proc_2
      - pi_d_a9_a7_proc_1 - pi_d_a9_a7_proc_0 >= 0
 c31: 702 pi_p_a7_a5 + 702 pi_p_a7_a3 + 702 pi_d_a7_a0_proc_0
      + 702 pi_d_a7_a1_proc_0 + 702 pi_d_a7_a2_proc_0 + 702 pi_d_a7_a4_proc_0
      + 702 pi_d_a7_a5_proc_0 + 702 pi_d_a7_a6_proc_0 + 702 pi_d_a7_a8_proc_0
      + 702 pi_d_a7_a9_proc_0 + pi_y1_a7 + pi_y2_a7_proc_0 >= 0
 c32: 848 pi_p_a7_a5 + 848 pi_p_a7_a3 + 848 pi_d_a7_a0_proc_1
      + 848 pi_d_a7_a1_proc_1 + 848 pi_d_a7_a2_proc_1 + 848 pi_d_a7_a3_proc_1
      + 848 pi_d_a7_a4_proc_1 + 848 pi_d_a7_a5_proc_1 + 848 pi_d_a7_a6_proc_1
      + 848 pi_d_a7_a8_proc_1 + 848 pi_d_a7_a9_proc_1 + pi_y1_a7
      + pi_y2_a7_proc_1 >= 0
 c33: 740 pi_p_a7_a5 + 740 pi_p_a7_a3 + 740 pi_d_a7_a0_proc_2
      + 740 pi_d_a7_a1_proc_2 + 740 pi_d_a7_a2_proc_2 + 740 pi_d_a7_a3_proc_2
      + 740 pi_d_a7_a4_proc_2 + 740 pi_d_a7_a5_proc_2 + 740 pi_d_a7_a6_proc_2
      + 740 pi_d_a7_a9_proc_2 + pi_y1_a7 + pi_y2_a7_proc_2 >= 0
 c34: pi_p_a8_a6 - pi_p_a6_a8 - pi_d_a0_a8_proc_1 - pi_d_a0_a8_proc_0
      + pi_d_a8_a0_proc_1 + pi_d_a8_a0_proc_0 - pi_d_a1_a8_proc_1
      - pi_d_a1_a8_proc_0 + pi_d_a8_a1_proc_1 + pi_d_a8_a1_proc_0
      - pi_d_a2_a8_proc_1 - pi_d_a2_a8_proc_0 + pi_d_a8_a2_proc_1
      + pi_d_a8_a2_proc_0 - pi_d_a3_a8_proc_1 + pi_d_a8_a3_proc_1
      - pi_d_a4_a8_proc_1 - pi_d_a4_a8_proc_0 + pi_d_a8_a4_proc_1
      + pi_d_a8_a4_proc_0 - pi_d_a5_a8_proc_1 - pi_d_a5_a8_proc_0
      + pi_d_a8_a5_proc_1 + pi_d_a8_a5_proc_0 - pi_d_a6_a8_proc_1
      - pi_d_a6_a8_proc_0 + pi_d_a8_a6_proc_1 + pi_d_a8_a6_proc_0
      - pi_d_a7_a8_proc_1 - pi_d_a7_a8_proc_0 + pi_d_a8_a7_proc_1
      + pi_d_a8_a7_proc_0 + pi_d_a8_a9_proc_1 + pi_d_a8_a9_proc_0
      - pi_d_a9_a8_proc_1 - pi_d_a9_a8_proc_0 >= 0
 c35: 734 pi_p_a8_a6 + 734 pi_d_a8_a0_proc_0 + 734 pi_d_a8_a1_proc_0
      + 734 pi_d_a8_a2_proc_0 + 734 pi_d_a8_a4_proc_0 + 734 pi_d_a8_a5_proc_0
      + 734 pi_d_a8_a6_proc_0 + 734 pi_d_a8_a7_proc_0 + 734 pi_d_a8_a9_proc_0
      + pi_y1_a8 + pi_y2_a8_proc_0 >= 0
 c36: 789 pi_p_a8_a6 + 789 pi_d_a8_a0_proc_1 + 789 pi_d_a8_a1_proc_1
      + 789 pi_d_a8_a2_proc_1 + 789 pi_d_a8_a3_proc_1 + 789 pi_d_a8_a4_proc_1
      + 789 pi_d_a8_a5_proc_1 + 789 pi_d_a8_a6_proc_1 + 789 pi_d_a8_a7_proc_1
      + 789 pi_d_a8_a9_proc_1 + pi_y1_a8 + pi_y2_a8_proc_1 >= 0
 c37: pi_p_a9_a7 - pi_p_a4_a9 - pi_p_a6_a9 + pi_p_a9_a5 - pi_d_a0_a9_proc_2
      - pi_d_a0_a9_proc_1 - pi_d_a0_a9_proc_0 + pi_d_a9_a0_proc_2
      + pi_d_a9_a0_proc_1 + pi_d_a9_a0_proc_0 - pi_d_a1_a9_proc_2
      - pi_d_a1_a9_proc_1 - pi_d_a1_a9_proc_0 + pi_d_a9_a1_proc_2
      + pi_d_a9_a1_proc_1 + pi_d_a9_a1_proc_0 - pi_d_a2_a9_proc_2
      - pi_d_a2_a9_proc_1 - pi_d_a2_a9_proc_0 + pi_d_a9_a2_proc_2
      + pi_d_a9_a2_proc_1 + pi_d_a9_a2_proc_0 - pi_d_a3_a9_proc_2
      - pi_d_a3_a9_proc_1 + pi_d_a9_a3_proc_2 + pi_d_a9_a3_proc_1
      - pi_d_a4_a9_proc_2 - pi_d_a4_a9_proc_1 - pi_d_a4_a9_proc_0
      + pi_d_a9_a4_proc_2 + pi_d_a9_a4_proc_1 + pi_d_a9_a4_proc_0
      - pi_d_a5_a9_proc_2 - pi_d_a5_a9_proc_1 - pi_d_a5_a9_proc_0
      + pi_d_a9_a5_proc_2 + pi_d_a9_a5_proc_1 + pi_d_a9_a5_proc_0
      - pi_d_a6_a9_proc_2 - pi_d_a6_a9_proc_1 - pi_d_a6_a9_proc_0
      + pi_d_a9_a6_proc_2 + pi_d_a9_a6_proc_1 + pi_d_a9_a6_proc_0
      - pi_d_a7_a9_proc_2 - pi_d_a7_a9_proc_1 - pi_d_a7_a9_proc_0
      + pi_d_a9_a7_proc_2 + pi_d_a9_a7_proc_1 + pi_d_a9_a7_proc_0
      - pi_d_a8_a9_proc_1 - pi_d_a8_a9_proc_0 + pi_d_a9_a8_proc_1
      + pi_d_a9_a8_proc_0 >= 0
 c38: 1192 pi_p_a9_a7 + 1192 pi_p_a9_a5 + 1192 pi_d_a9_a0_proc_0
      + 1192 pi_d_a9_a1_proc_0 + 1192 pi_d_a9_a2_proc_0 + 1192 pi_d_a9_a4_proc_0
      + 1192 pi_d_a9_a5_proc_0 + 1192 pi_d_a9_a6_proc_0 + 1192 pi_d_a9_a7_proc_0
      + 1192 pi_d_a9_a8_proc_0 + pi_y1_a9 + pi_y2_a9_proc_0 >= 0
 c39: 420 pi_p_a9_a7 + 420 pi_p_a9_a5 + 420 pi_d_a9_a0_proc_1
      + 420 pi_d_a9_a1_proc_1 + 420 pi_d_a9_a2_proc_1 + 420 pi_d_a9_a3_proc_1
      + 420 pi_d_a9_a4_proc_1 + 420 pi_d_a9_a5_proc_1 + 420 pi_d_a9_a6_proc_1
      + 420 pi_d_a9_a7_proc_1 + 420 pi_d_a9_a8_proc_1 + pi_y1_a9
      + pi_y2_a9_proc_1 >= 0
 c40: 575 pi_p_a9_a7 + 575 pi_p_a9_a5 + 575 pi_d_a9_a0_proc_2
      + 575 pi_d_a9_a1_proc_2 + 575 pi_d_a9_a2_proc_2 + 575 pi_d_a9_a3_proc_2
      + 575 pi_d_a9_a4_proc_2 + 575 pi_d_a9_a5_proc_2 + 575 pi_d_a9_a6_proc_2
      + 575 pi_d_a9_a7_proc_2 + pi_y1_a9 + pi_y2_a9_proc_2 >= 0

Bounds
       pi_y1_a0 Free
       pi_y1_a1 Free
       pi_y1_a2 Free
       pi_y1_a3 Free
       pi_y1_a4 Free
       pi_y1_a5 Free
       pi_y1_a6 Free
       pi_y1_a7 Free
       pi_y1_a8 Free
       pi_y1_a9 Free
End
