benchmark/results/graph__10-1000-0.10-03_11/graph__10-1000-0.10-03_11_Quinton_Benders_aux.txt
solution for: Quinton Benders_auxiliary_sub
objective: 0.0316124
status: OPTIMAL_SOLUTION(2)
pi_p_a0_a1=0.000
pi_p_a1_a2=0.000
pi_p_a3_a0=0.000
pi_p_a2_a4=0.000
pi_p_a9_a7=0.000
pi_p_a6_a9=0.000
pi_p_a7_a3=0.000
pi_d_a4_a6_proc_1=0.000
pi_y1_a0=-0.143
pi_y1_a1=-0.081
pi_y1_a2=-0.181
pi_y1_a3=-0.075
pi_y1_a4=-0.174
pi_y1_a6=-0.159
pi_y1_a7=-0.117
pi_y1_a9=-0.070
pi_y2_a2_proc_0=0.008
pi_y2_a4_proc_0=0.174
pi_y2_a4_proc_2=0.174
pi_y2_a6_proc_0=0.071
pi_y2_a6_proc_2=0.008
